caseWidth=10;
caseHeight=10;
caseCapacity=100;
n=20;
price=[71 15 64 16 41 44 46 90 62 20 65 30 45 14 39 15 95 89 26 9];
weight=[18 7 1 3 7 13 12 18 7 12 5 11 10 7 10 3 17 14 14 17];
side=[4 4 3 1 4 2 4 4 3 3 4 3 4 3 3 2 2 1 4 2];
